109353
108129
108129
108129
107146
107146
107051
106539
103139
103139
101200
100258
100258
100258
98968.4
98968.4
96970.5
96393.1
96393.1
96393.1
94922.2
94922.2
94189.8
93123.6
93123.6
93123.6
92112.9
92112.9
91833.1
91833.1
91833.1
91833.1
91833.1
90986.5
90702.9
90622.5
89852.5
89838.4
89838.4
88704.9
88704.9
87018.3
87018.3
86449.7
85892.7
85892.7
85892.7
85348.6
85348.6
85348.6
84874.9
84874.9
84874.9
84874.9
84874.9
84874.9
83867.4
83867.4
83867.4
83508.5
83508.5
83508.5
82736.6
82566.8
82566.8
82566.8
82566.8
82459.9
82355.2
82355.2
81096.7
80660.9
80660.9
80660.9
80660.9
80660.9
80660.9
80660.9
79823.1
79823.1
79823.1
79823.1
79823.1
79823.1
79823.1
79577.8
77864.6
77864.6
77864.6
77864.6
77864.6
77864.6
77864.6
75916.1
75916.1
75208.9
75208.9
75208.9
75208.9
75208.9
